c User generated cnf file
p cnf 14 49
13 -5 3 0 
9 -1 13 0 
13 -9 1 0 
-13 5 1 0 
13 -14 2 0 
10 2 -4 0 
6 3 -14 0 
-5 11 13 0 
-14 9 6 0 
14 4 -2 0 
8 7 -6 0 
2 -3 10 0 
5 -12 14 0 
3 -7 13 0 
10 -11 5 0 
-11 1 1 0 
4 -6 10 0 
6 8 -14 0 
8 10 -14 0 
10 13 -7 0 
4 -10 4 0 
14 -7 1 0 
8 3 -2 0 
-9 14 4 0 
-10 13 12 0 
-11 13 2 0 
14 -13 2 0 
9 -1 3 0 
-7 6 11 0 
1 -2 12 0 
4 -4 7 0 
2 12 -13 0 
2 7 -2 0 
8 -4 1 0 
11 14 -12 0 
13 9 -6 0 
2 7 -1 0 
10 4 -13 0 
-11 4 10 0 
6 -14 5 0 
3 1 -1 0 
1 1 -2 0 
10 -11 12 0 
-12 13 6 0 
4 8 -10 0 
10 -12 5 0 
9 14 -8 0 
-14 7 7 0 
12 1 -11 0 
